3412.93 0
0 137 85 118 48 161 68 0 
0 154 39 164 102 1 190 86 0 
0 23 178 59 112 49 159 160 0 
0 125 47 182 31 120 171 43 183 0 
0 152 94 141 5 174 175 81 196 0 
0 147 13 87 72 67 134 66 181 0 
0 79 188 32 108 113 93 133 170 177 0 
0 105 180 195 179 155 95 114 30 65 167 0 
0 198 197 4 130 12 184 122 107 166 14 156 0 
0 58 149 75 22 151 193 16 194 62 176 111 0 
0 26 54 158 169 135 103 148 19 38 44 100 144 0 
0 106 83 45 82 123 189 10 71 9 162 27 28 138 0 
0 53 55 187 139 191 168 128 34 3 77 116 157 50 127 89 0 
0 132 76 109 163 33 131 11 143 153 18 61 96 97 142 172 186 21 0 
0 40 73 115 145 15 119 192 98 99 104 17 8 124 52 88 64 63 20 51 185 29 150 0 
0 146 69 101 70 90 126 36 46 7 199 60 84 173 140 91 37 92 6 117 42 57 2 41 74 56 110 25 165 24 121 78 35 136 129 80 0 
